src/LKH/IO/anjos-70-02.tour
NAME : anjos-70-02.-202.tour
COMMENT : Length = -202
COMMENT : Found by LKH [Keld Helsgaun] Sun Apr 13 17:05:01 2025
TYPE : TOUR
DIMENSION : 70
TOUR_SECTION
1
4
9
25
61
66
6
43
33
62
31
12
27
37
22
32
40
34
68
16
24
42
53
47
52
69
13
63
36
21
10
28
8
51
46
15
54
70
5
17
65
59
35
11
26
19
44
60
20
55
2
14
58
3
49
18
23
67
50
64
57
39
7
48
38
56
41
45
29
30
-1
EOF
